(declare-const in20 Int)
(declare-const in22 Int)
(declare-const in21 Int)
(declare-const in24 Int)
(declare-const in23 Int)
(declare-const in26 Int)
(declare-const in25 Int)
(declare-const in27 Int)
(declare-const in0 Int)
(declare-const in2 Int)
(declare-const in1 Int)
(declare-const in4 Int)
(declare-const in3 Int)
(declare-const in6 Int)
(declare-const in5 Int)
(declare-const in8 Int)
(declare-const in7 Int)
(declare-const in11 Int)
(declare-const in10 Int)
(declare-const in9 Int)
(declare-const in13 Int)
(declare-const in12 Int)
(declare-const in15 Int)
(declare-const in14 Int)
(declare-const in17 Int)
(declare-const in16 Int)
(declare-const in19 Int)
(declare-const in18 Int)

(assert (and (and (and (and (and (and (and (and (and (and (and (and (and (and (and (and (and (and (and (and (and (and (and (and (and (and (and (and (and (and (and (and (and (and (and (and (and (and (and (and (and (and (and (and (and (and (and (and (and (and (and (and (and (and (and (not ( = in0 65))  ( =  in0 66)) (not ( = in1 69)))  ( =  in1 70)) (not ( = in2 73))) (not ( = in2 74))) (not ( = in3 65)))  ( =  in3 66)) (not ( = in4 69)))  ( =  in4 70)) (not ( = in5 73))) (not ( = in5 74))) (not ( = in6 65)))  ( =  in6 66)) (not ( = in7 69)))  ( =  in7 70)) (not ( = in8 73))) (not ( = in8 74))) (not ( = in9 65)))  ( =  in9 66)) (not ( = in10 69)))  ( =  in10 70)) (not ( = in11 73))) (not ( = in11 74))) (not ( = in12 65)))  ( =  in12 66)) (not ( = in13 69)))  ( =  in13 70)) (not ( = in14 73))) (not ( = in14 74))) (not ( = in15 65)))  ( =  in15 66)) (not ( = in16 69)))  ( =  in16 70)) (not ( = in17 73))) (not ( = in17 74))) (not ( = in18 65)))  ( =  in18 66)) (not ( = in19 69)))  ( =  in19 70)) (not ( = in20 73))) (not ( = in20 74))) (not ( = in21 65)))  ( =  in21 66)) (not ( = in22 69)))  ( =  in22 70)) (not ( = in23 73))) (not ( = in23 74))) (not ( = in24 65)))  ( =  in24 66)) (not ( = in25 69)))  ( =  in25 70)) (not ( = in26 73))) (not ( = in26 74))) (not ( = in27 65)))  ( =  in27 66)))

(check-sat)
(get-model)